%%%mzn-stat: initTime=0.003903454
%%%mzn-stat: objective=381
%%%mzn-stat: nodes=1066
%%%mzn-stat: restarts=0
%%%mzn-stat: peakDepth=89
%%%mzn-stat: solveTime=0.04692588
%%%mzn-stat: variables=372
%%%mzn-stat: propagators=253
%%%mzn-stat: failures=530
%%%mzn-stat: propagations=74213
%%%mzn-stat: nogoods=530
%%%mzn-stat: AverageConflictSize=6.088679245283019
%%%mzn-stat: NumUnitNogoodsLearned=380
%%%mzn-stat: AverageLearnedNogoodLength=5.490566037735849
%%%mzn-stat: AverageBacktrackAmount=0
%%%mzn-stat: AverageLbd=2.1188679245283017
%%%mzn-stat-end
maxleg = 381;
succ = array1d(1..20,[4, 11, 13, 16, 3, 8, 9, 15, 20, 6, 18, 5, 19, 1, 17, 12, 2, 7, 10, 14]);
% time elapsed: 1.49 s
----------
==========
% time elapsed: 1.49 s
%%%mzn-stat: initTime=0.003903454
%%%mzn-stat: objective=381
%%%mzn-stat: nodes=1066
%%%mzn-stat: restarts=0
%%%mzn-stat: peakDepth=89
%%%mzn-stat: solveTime=0.04692928
%%%mzn-stat: variables=372
%%%mzn-stat: propagators=253
%%%mzn-stat: failures=530
%%%mzn-stat: propagations=74213
%%%mzn-stat: nogoods=530
%%%mzn-stat: AverageConflictSize=6.088679245283019
%%%mzn-stat: NumUnitNogoodsLearned=380
%%%mzn-stat: AverageLearnedNogoodLength=5.490566037735849
%%%mzn-stat: AverageBacktrackAmount=0
%%%mzn-stat: AverageLbd=2.1188679245283017
%%%mzn-stat-end
